17
[[-1, 0, 30222, 0, 0, 0, 0, 0, 0, 0, 0, 0, 0, 0, 0, 0, 18761],[0, -1, 0, 0, 0, 31541, 37182, 0, 0, 0, 0, 0, 0, 0, 0, 25139, 0],[30222, 0, -1, 0, 0, 41511, 0, 0, 0, 0, 0, 43297, 4898, 0, 0, 0, 0],[0, 0, 0, -1, 0, 0, 0, 0, 0, 36141, 36467, 41391, 12696, 42435, 0, 0, 0],[0, 0, 0, 0, -1, 0, 0, 0, 0, 0, 0, 20889, 19726, 40086, 0, 0, 0],[0, 31541, 41511, 0, 0, -1, 0, 0, 0, 0, 0, 0, 0, 0, 26518, 0, 0],[0, 37182, 0, 0, 0, 0, -1, 0, 0, 0, 0, 0, 12406, 0, 0, 0, 0],[0, 0, 0, 0, 0, 0, 0, -1, 2127, 32172, 0, 0, 0, 0, 17230, 0, 0],[0, 0, 0, 0, 0, 0, 0, 2127, -1, 13491, 39801, 0, 38803, 0, 42963, 0, 0],[0, 0, 0, 36141, 0, 0, 0, 32172, 13491, -1, 0, 0, 22678, 0, 0, 0, 0],[0, 0, 0, 36467, 0, 0, 0, 0, 39801, 0, -1, 43341, 0, 36890, 0, 0, 0],[0, 0, 43297, 41391, 20889, 0, 0, 0, 0, 0, 43341, -1, 27566, 0, 28846, 45936, 0],[0, 0, 4898, 12696, 19726, 0, 12406, 0, 38803, 22678, 0, 27566, -1, 44339, 30605, 41789, 32528],[0, 0, 0, 42435, 40086, 0, 0, 0, 0, 0, 36890, 0, 44339, -1, 0, 0, 0],[0, 0, 0, 0, 0, 26518, 0, 17230, 42963, 0, 0, 28846, 30605, 0, -1, 0, 0],[0, 25139, 0, 0, 0, 0, 0, 0, 0, 0, 0, 45936, 41789, 0, 0, -1, 0],[18761, 0, 0, 0, 0, 0, 0, 0, 0, 0, 0, 0, 32528, 0, 0, 0, -1]]